50
100
99
98
93
93
92
90
88
87
87
83
83
81
78
77
77
77
76
75
73
73
71
68
66
64
63
63
63
62
60
59
58
54
53
52
52
51
49
47
47
42
42
41
40
40
40
39
35
32
32
31
